0
0
0
0
16
0
0
0
0
0
0
0
0
0
0
0
0
0
0
0
0
1 2 1
1 3 1
1 4 1
1 5 1
1 6 1
1 7 0
1 8 1
1 9 0
1 10 1
1 11 1
1 12 1
1 13 1
1 14 0
1 15 1
1 16 0
2 3 0
2 4 1
2 5 0
2 6 0
2 7 0
2 8 1
2 9 1
2 10 0
2 11 1
2 12 1
2 13 1
2 14 1
2 15 0
2 16 1
3 4 1
3 5 0
3 6 0
3 7 1
3 8 1
3 9 0
3 10 0
3 11 0
3 12 0
3 13 1
3 14 1
3 15 1
3 16 1
4 5 1
4 6 0
4 7 0
4 8 1
4 9 0
4 10 1
4 11 0
4 12 1
4 13 0
4 14 1
4 15 0
4 16 1
5 6 1
5 7 1
5 8 1
5 9 1
5 10 1
5 11 0
5 12 0
5 13 1
5 14 1
5 15 0
5 16 0
6 7 0
6 8 0
6 9 0
6 10 1
6 11 1
6 12 1
6 13 1
6 14 1
6 15 0
6 16 0
7 8 1
7 9 0
7 10 0
7 11 0
7 12 1
7 13 0
7 14 1
7 15 1
7 16 1
8 9 0
8 10 0
8 11 1
8 12 1
8 13 1
8 14 1
8 15 1
8 16 0
9 10 1
9 11 1
9 12 1
9 13 1
9 14 0
9 15 0
9 16 0
10 11 1
10 12 1
10 13 1
10 14 1
10 15 1
10 16 1
11 12 0
11 13 1
11 14 0
11 15 0
11 16 1
12 13 1
12 14 1
12 15 0
12 16 0
13 14 0
13 15 1
13 16 1
14 15 1
14 16 1
15 16 1
